
  22   10
  10   10   10   10   10   10   10   10   10   10

   0   0   0   0   0   0   0   0   0   0   0   3 2 5 8 
   2  10  10  10  10  10  10  10  10  10  10   2 10 3 
   2  10  10  10  10  10  10  10  10  10  10   2 21 4 
   1  10  10  10  10  10  10  10  10  10  10   2 11 6 
   8  10  10  10  10  10  10  10  10  10  10   4 17 16 11 10 
  10  10  10  10  10  10  10  10  10  10  10   1 7 
   2  10  10  10  10  10  10  10  10  10  10   3 20 16 9 
   9  10  10  10  10  10  10  10  10  10  10   3 20 10 9 
   6  10  10  10  10  10  10  10  10  10  10   3 19 14 12 
   9  10  10  10  10  10  10  10  10  10  10   2 19 14 
   5  10  10  10  10  10  10  10  10  10  10   1 12 
   3  10  10  10  10  10  10  10  10  10  10   1 13 
   5  10  10  10  10  10  10  10  10  10  10   1 15 
   7  10  10  10  10  10  10  10  10  10  10   1 15 
   3  10  10  10  10  10  10  10  10  10  10   1 18 
   5  10  10  10  10  10  10  10  10  10  10   1 19 
  10  10  10  10  10  10  10  10  10  10  10   1 20 
  10  10  10  10  10  10  10  10  10  10  10   1 22
   3  10  10  10  10  10  10  10  10  10  10   1 22
   7  10  10  10  10  10  10  10  10  10  10   1 22
   9  10  10  10  10  10  10  10  10  10  10   1 22
   0   0   0   0   0   0   0   0   0   0   0   0 
